c " random instance " 
p edges 200 4054
e 1 5
e 1 6
e 1 9
e 1 14
e 1 35
e 1 37
e 1 41
e 1 43
e 1 52
e 1 65
e 1 66
e 1 68
e 1 71
e 1 73
e 1 74
e 1 76
e 1 88
e 1 90
e 1 98
e 1 109
e 1 114
e 1 121
e 1 124
e 1 133
e 1 139
e 1 140
e 1 141
e 1 142
e 1 175
e 1 178
e 1 179
e 1 186
e 1 189
e 1 192
e 1 194
e 1 198
e 1 199
e 2 11
e 2 17
e 2 30
e 2 32
e 2 38
e 2 39
e 2 43
e 2 44
e 2 52
e 2 54
e 2 58
e 2 59
e 2 68
e 2 71
e 2 78
e 2 79
e 2 83
e 2 86
e 2 89
e 2 101
e 2 104
e 2 106
e 2 109
e 2 113
e 2 118
e 2 119
e 2 153
e 2 155
e 2 164
e 2 165
e 2 170
e 2 177
e 2 182
e 2 184
e 2 191
e 2 192
e 2 193
e 2 196
e 2 200
e 3 5
e 3 8
e 3 10
e 3 11
e 3 14
e 3 16
e 3 21
e 3 24
e 3 26
e 3 34
e 3 38
e 3 46
e 3 55
e 3 59
e 3 62
e 3 63
e 3 67
e 3 72
e 3 73
e 3 75
e 3 76
e 3 84
e 3 91
e 3 100
e 3 106
e 3 119
e 3 123
e 3 129
e 3 130
e 3 134
e 3 140
e 3 146
e 3 148
e 3 157
e 3 160
e 3 166
e 3 172
e 3 175
e 3 177
e 3 180
e 3 182
e 3 186
e 3 188
e 4 5
e 4 25
e 4 34
e 4 39
e 4 41
e 4 44
e 4 51
e 4 52
e 4 63
e 4 87
e 4 89
e 4 99
e 4 103
e 4 104
e 4 115
e 4 118
e 4 122
e 4 126
e 4 139
e 4 150
e 4 151
e 4 152
e 4 153
e 4 166
e 4 167
e 4 169
e 4 187
e 4 189
e 4 191
e 4 192
e 4 196
e 4 199
e 5 14
e 5 19
e 5 21
e 5 22
e 5 26
e 5 31
e 5 36
e 5 37
e 5 38
e 5 41
e 5 49
e 5 51
e 5 54
e 5 66
e 5 72
e 5 79
e 5 82
e 5 85
e 5 88
e 5 90
e 5 92
e 5 123
e 5 124
e 5 126
e 5 127
e 5 129
e 5 130
e 5 131
e 5 135
e 5 137
e 5 138
e 5 145
e 5 149
e 5 178
e 5 179
e 5 180
e 5 185
e 5 188
e 5 198
e 5 200
e 6 7
e 6 10
e 6 14
e 6 17
e 6 18
e 6 20
e 6 21
e 6 22
e 6 25
e 6 30
e 6 34
e 6 36
e 6 40
e 6 43
e 6 45
e 6 47
e 6 48
e 6 50
e 6 51
e 6 55
e 6 60
e 6 61
e 6 63
e 6 66
e 6 77
e 6 78
e 6 84
e 6 86
e 6 91
e 6 93
e 6 96
e 6 107
e 6 108
e 6 111
e 6 117
e 6 120
e 6 121
e 6 129
e 6 137
e 6 140
e 6 142
e 6 144
e 6 146
e 6 148
e 6 150
e 6 153
e 6 154
e 6 156
e 6 158
e 6 177
e 6 179
e 6 186
e 6 189
e 6 192
e 6 200
e 7 9
e 7 13
e 7 22
e 7 23
e 7 26
e 7 30
e 7 33
e 7 36
e 7 39
e 7 44
e 7 46
e 7 47
e 7 61
e 7 66
e 7 68
e 7 73
e 7 77
e 7 80
e 7 91
e 7 97
e 7 98
e 7 121
e 7 127
e 7 136
e 7 150
e 7 153
e 7 159
e 7 162
e 7 165
e 7 170
e 7 171
e 7 172
e 7 175
e 7 182
e 7 186
e 7 189
e 7 196
e 7 198
e 7 200
e 8 9
e 8 10
e 8 17
e 8 20
e 8 23
e 8 24
e 8 26
e 8 27
e 8 30
e 8 39
e 8 51
e 8 56
e 8 66
e 8 69
e 8 76
e 8 80
e 8 82
e 8 83
e 8 86
e 8 91
e 8 99
e 8 104
e 8 109
e 8 112
e 8 113
e 8 126
e 8 135
e 8 157
e 8 159
e 8 161
e 8 173
e 8 178
e 8 185
e 8 200
e 9 10
e 9 37
e 9 38
e 9 39
e 9 41
e 9 42
e 9 46
e 9 50
e 9 53
e 9 56
e 9 57
e 9 60
e 9 63
e 9 76
e 9 77
e 9 89
e 9 92
e 9 98
e 9 99
e 9 103
e 9 111
e 9 116
e 9 124
e 9 127
e 9 131
e 9 132
e 9 137
e 9 141
e 9 142
e 9 146
e 9 147
e 9 150
e 9 152
e 9 153
e 9 164
e 9 173
e 9 180
e 9 181
e 9 185
e 9 189
e 9 193
e 9 194
e 9 199
e 10 12
e 10 13
e 10 16
e 10 17
e 10 35
e 10 41
e 10 44
e 10 45
e 10 48
e 10 51
e 10 58
e 10 64
e 10 68
e 10 75
e 10 80
e 10 82
e 10 85
e 10 90
e 10 92
e 10 115
e 10 117
e 10 132
e 10 142
e 10 148
e 10 170
e 10 174
e 10 179
e 10 180
e 10 181
e 10 192
e 10 199
e 11 15
e 11 18
e 11 19
e 11 28
e 11 32
e 11 34
e 11 36
e 11 39
e 11 48
e 11 51
e 11 52
e 11 54
e 11 55
e 11 60
e 11 65
e 11 72
e 11 75
e 11 78
e 11 88
e 11 91
e 11 92
e 11 93
e 11 97
e 11 103
e 11 111
e 11 116
e 11 118
e 11 119
e 11 124
e 11 131
e 11 132
e 11 140
e 11 141
e 11 144
e 11 148
e 11 150
e 11 157
e 11 158
e 11 160
e 11 162
e 11 163
e 11 165
e 11 175
e 11 181
e 11 183
e 11 187
e 11 189
e 11 195
e 12 13
e 12 16
e 12 24
e 12 33
e 12 34
e 12 44
e 12 48
e 12 51
e 12 56
e 12 61
e 12 64
e 12 70
e 12 79
e 12 80
e 12 89
e 12 95
e 12 98
e 12 104
e 12 105
e 12 110
e 12 114
e 12 117
e 12 119
e 12 126
e 12 134
e 12 137
e 12 139
e 12 148
e 12 166
e 12 167
e 12 180
e 12 188
e 12 190
e 12 191
e 12 195
e 12 200
e 13 15
e 13 19
e 13 24
e 13 30
e 13 31
e 13 32
e 13 33
e 13 40
e 13 43
e 13 45
e 13 59
e 13 61
e 13 71
e 13 73
e 13 75
e 13 86
e 13 87
e 13 88
e 13 98
e 13 100
e 13 101
e 13 106
e 13 122
e 13 124
e 13 132
e 13 139
e 13 144
e 13 147
e 13 148
e 13 149
e 13 157
e 13 166
e 13 169
e 13 173
e 13 176
e 13 177
e 13 182
e 13 183
e 13 186
e 13 192
e 13 194
e 13 197
e 13 199
e 13 200
e 14 20
e 14 24
e 14 31
e 14 33
e 14 34
e 14 35
e 14 42
e 14 53
e 14 55
e 14 58
e 14 67
e 14 68
e 14 71
e 14 77
e 14 78
e 14 81
e 14 85
e 14 118
e 14 120
e 14 124
e 14 133
e 14 137
e 14 141
e 14 142
e 14 147
e 14 152
e 14 156
e 14 171
e 14 175
e 14 176
e 14 180
e 14 181
e 14 191
e 14 195
e 14 199
e 14 200
e 15 24
e 15 28
e 15 30
e 15 31
e 15 33
e 15 40
e 15 42
e 15 43
e 15 44
e 15 50
e 15 55
e 15 58
e 15 63
e 15 66
e 15 67
e 15 91
e 15 96
e 15 101
e 15 104
e 15 105
e 15 115
e 15 116
e 15 124
e 15 141
e 15 146
e 15 152
e 15 154
e 15 158
e 15 166
e 15 167
e 15 171
e 15 172
e 15 173
e 15 181
e 15 182
e 15 183
e 15 186
e 15 198
e 16 23
e 16 28
e 16 31
e 16 41
e 16 44
e 16 48
e 16 50
e 16 52
e 16 57
e 16 58
e 16 60
e 16 63
e 16 73
e 16 83
e 16 89
e 16 90
e 16 92
e 16 95
e 16 101
e 16 104
e 16 116
e 16 117
e 16 130
e 16 132
e 16 136
e 16 138
e 16 139
e 16 141
e 16 167
e 16 168
e 16 177
e 16 179
e 16 187
e 16 191
e 16 198
e 16 199
e 17 19
e 17 24
e 17 30
e 17 39
e 17 42
e 17 43
e 17 46
e 17 54
e 17 61
e 17 71
e 17 75
e 17 91
e 17 94
e 17 98
e 17 99
e 17 100
e 17 103
e 17 104
e 17 105
e 17 116
e 17 118
e 17 120
e 17 126
e 17 127
e 17 138
e 17 144
e 17 153
e 17 154
e 17 159
e 17 162
e 17 166
e 17 167
e 17 170
e 17 171
e 17 176
e 17 185
e 17 190
e 17 194
e 17 195
e 17 198
e 17 199
e 18 22
e 18 24
e 18 27
e 18 28
e 18 47
e 18 50
e 18 59
e 18 75
e 18 76
e 18 77
e 18 82
e 18 86
e 18 90
e 18 93
e 18 99
e 18 101
e 18 102
e 18 108
e 18 111
e 18 118
e 18 129
e 18 131
e 18 132
e 18 133
e 18 134
e 18 138
e 18 155
e 18 161
e 18 168
e 18 169
e 18 173
e 18 174
e 18 178
e 18 184
e 18 186
e 18 192
e 18 195
e 18 199
e 19 25
e 19 30
e 19 33
e 19 34
e 19 38
e 19 44
e 19 46
e 19 52
e 19 53
e 19 57
e 19 59
e 19 61
e 19 64
e 19 80
e 19 92
e 19 94
e 19 101
e 19 113
e 19 118
e 19 120
e 19 126
e 19 138
e 19 145
e 19 148
e 19 151
e 19 152
e 19 157
e 19 160
e 19 163
e 19 174
e 19 178
e 19 184
e 19 185
e 19 189
e 19 193
e 19 194
e 19 195
e 19 197
e 20 31
e 20 50
e 20 57
e 20 62
e 20 68
e 20 71
e 20 83
e 20 88
e 20 91
e 20 96
e 20 109
e 20 111
e 20 115
e 20 116
e 20 117
e 20 118
e 20 120
e 20 130
e 20 131
e 20 139
e 20 143
e 20 145
e 20 156
e 20 160
e 20 162
e 20 166
e 20 169
e 20 171
e 20 172
e 20 178
e 20 188
e 20 189
e 21 34
e 21 37
e 21 39
e 21 44
e 21 46
e 21 54
e 21 64
e 21 68
e 21 69
e 21 76
e 21 77
e 21 87
e 21 89
e 21 93
e 21 94
e 21 95
e 21 101
e 21 102
e 21 107
e 21 109
e 21 110
e 21 115
e 21 119
e 21 120
e 21 121
e 21 126
e 21 130
e 21 132
e 21 133
e 21 137
e 21 141
e 21 145
e 21 147
e 21 148
e 21 167
e 21 170
e 21 173
e 21 176
e 21 179
e 21 186
e 21 188
e 21 194
e 22 26
e 22 30
e 22 31
e 22 32
e 22 33
e 22 45
e 22 49
e 22 54
e 22 56
e 22 57
e 22 73
e 22 78
e 22 81
e 22 84
e 22 86
e 22 88
e 22 101
e 22 116
e 22 120
e 22 121
e 22 123
e 22 131
e 22 136
e 22 138
e 22 149
e 22 150
e 22 152
e 22 158
e 22 159
e 22 173
e 22 176
e 22 180
e 22 183
e 22 187
e 22 192
e 22 199
e 22 200
e 23 31
e 23 38
e 23 39
e 23 50
e 23 52
e 23 53
e 23 57
e 23 59
e 23 60
e 23 61
e 23 66
e 23 76
e 23 82
e 23 89
e 23 90
e 23 98
e 23 106
e 23 108
e 23 109
e 23 112
e 23 137
e 23 140
e 23 152
e 23 154
e 23 155
e 23 159
e 23 160
e 23 164
e 23 165
e 23 176
e 23 197
e 24 28
e 24 30
e 24 35
e 24 38
e 24 39
e 24 41
e 24 43
e 24 72
e 24 75
e 24 76
e 24 87
e 24 93
e 24 94
e 24 99
e 24 106
e 24 109
e 24 116
e 24 118
e 24 120
e 24 122
e 24 124
e 24 127
e 24 133
e 24 137
e 24 139
e 24 141
e 24 142
e 24 143
e 24 151
e 24 153
e 24 169
e 24 171
e 24 172
e 24 177
e 24 178
e 24 184
e 24 191
e 24 200
e 25 26
e 25 28
e 25 35
e 25 39
e 25 46
e 25 56
e 25 66
e 25 71
e 25 74
e 25 78
e 25 82
e 25 90
e 25 91
e 25 92
e 25 94
e 25 99
e 25 100
e 25 106
e 25 107
e 25 116
e 25 124
e 25 133
e 25 134
e 25 147
e 25 172
e 25 174
e 25 189
e 25 192
e 26 28
e 26 33
e 26 44
e 26 47
e 26 50
e 26 53
e 26 54
e 26 66
e 26 67
e 26 68
e 26 70
e 26 75
e 26 78
e 26 79
e 26 82
e 26 83
e 26 90
e 26 107
e 26 119
e 26 122
e 26 123
e 26 127
e 26 128
e 26 140
e 26 142
e 26 151
e 26 152
e 26 153
e 26 155
e 26 171
e 26 178
e 26 179
e 26 188
e 26 189
e 26 195
e 27 31
e 27 35
e 27 43
e 27 47
e 27 52
e 27 56
e 27 62
e 27 68
e 27 69
e 27 73
e 27 75
e 27 81
e 27 83
e 27 84
e 27 87
e 27 93
e 27 94
e 27 102
e 27 106
e 27 107
e 27 115
e 27 120
e 27 126
e 27 133
e 27 135
e 27 160
e 27 162
e 27 169
e 27 176
e 27 179
e 27 180
e 27 182
e 27 192
e 27 195
e 28 29
e 28 31
e 28 33
e 28 38
e 28 44
e 28 47
e 28 51
e 28 56
e 28 59
e 28 62
e 28 82
e 28 86
e 28 95
e 28 101
e 28 103
e 28 104
e 28 106
e 28 107
e 28 108
e 28 109
e 28 118
e 28 121
e 28 122
e 28 123
e 28 127
e 28 133
e 28 149
e 28 150
e 28 169
e 28 170
e 28 172
e 28 176
e 28 185
e 28 188
e 28 195
e 28 197
e 28 200
e 29 36
e 29 37
e 29 41
e 29 44
e 29 46
e 29 49
e 29 53
e 29 61
e 29 64
e 29 65
e 29 72
e 29 76
e 29 82
e 29 87
e 29 91
e 29 94
e 29 95
e 29 99
e 29 104
e 29 117
e 29 122
e 29 130
e 29 133
e 29 135
e 29 139
e 29 149
e 29 152
e 29 153
e 29 162
e 29 172
e 29 173
e 29 176
e 29 184
e 29 191
e 29 194
e 29 198
e 30 42
e 30 43
e 30 52
e 30 53
e 30 62
e 30 68
e 30 72
e 30 73
e 30 74
e 30 85
e 30 91
e 30 96
e 30 99
e 30 101
e 30 104
e 30 105
e 30 121
e 30 123
e 30 127
e 30 131
e 30 135
e 30 137
e 30 143
e 30 144
e 30 147
e 30 153
e 30 155
e 30 156
e 30 158
e 30 164
e 30 166
e 30 173
e 30 175
e 30 178
e 30 179
e 30 183
e 30 184
e 30 191
e 30 193
e 31 32
e 31 33
e 31 41
e 31 43
e 31 53
e 31 56
e 31 63
e 31 66
e 31 68
e 31 70
e 31 84
e 31 87
e 31 98
e 31 100
e 31 115
e 31 117
e 31 119
e 31 122
e 31 123
e 31 124
e 31 133
e 31 144
e 31 147
e 31 151
e 31 161
e 31 165
e 31 173
e 31 174
e 31 177
e 31 181
e 31 188
e 31 191
e 31 193
e 31 196
e 31 197
e 32 36
e 32 41
e 32 59
e 32 60
e 32 66
e 32 70
e 32 73
e 32 79
e 32 82
e 32 89
e 32 90
e 32 92
e 32 93
e 32 96
e 32 100
e 32 101
e 32 103
e 32 105
e 32 106
e 32 111
e 32 117
e 32 125
e 32 133
e 32 146
e 32 152
e 32 161
e 32 162
e 32 166
e 32 169
e 32 172
e 32 176
e 32 179
e 32 191
e 32 200
e 33 38
e 33 39
e 33 50
e 33 56
e 33 58
e 33 61
e 33 67
e 33 73
e 33 74
e 33 85
e 33 90
e 33 91
e 33 93
e 33 100
e 33 102
e 33 112
e 33 113
e 33 120
e 33 132
e 33 134
e 33 137
e 33 142
e 33 154
e 33 155
e 33 163
e 33 167
e 33 185
e 33 191
e 33 193
e 33 196
e 34 37
e 34 44
e 34 46
e 34 47
e 34 53
e 34 54
e 34 56
e 34 57
e 34 67
e 34 73
e 34 91
e 34 94
e 34 95
e 34 96
e 34 98
e 34 115
e 34 120
e 34 124
e 34 126
e 34 127
e 34 130
e 34 139
e 34 141
e 34 143
e 34 144
e 34 147
e 34 154
e 34 155
e 34 165
e 34 175
e 34 176
e 34 177
e 34 195
e 34 198
e 35 37
e 35 47
e 35 57
e 35 58
e 35 60
e 35 69
e 35 75
e 35 84
e 35 86
e 35 87
e 35 89
e 35 91
e 35 106
e 35 111
e 35 114
e 35 115
e 35 117
e 35 119
e 35 129
e 35 132
e 35 138
e 35 140
e 35 141
e 35 145
e 35 155
e 35 161
e 35 170
e 35 187
e 35 188
e 35 199
e 35 200
e 36 39
e 36 40
e 36 43
e 36 49
e 36 50
e 36 58
e 36 67
e 36 72
e 36 90
e 36 93
e 36 96
e 36 100
e 36 101
e 36 106
e 36 108
e 36 111
e 36 124
e 36 127
e 36 136
e 36 141
e 36 145
e 36 146
e 36 163
e 36 165
e 36 167
e 36 169
e 36 170
e 36 176
e 36 187
e 37 41
e 37 43
e 37 45
e 37 57
e 37 61
e 37 62
e 37 69
e 37 76
e 37 77
e 37 83
e 37 86
e 37 92
e 37 95
e 37 101
e 37 113
e 37 114
e 37 128
e 37 133
e 37 137
e 37 139
e 37 147
e 37 150
e 37 157
e 37 159
e 37 162
e 37 164
e 37 174
e 37 175
e 37 186
e 37 189
e 37 192
e 38 40
e 38 44
e 38 61
e 38 64
e 38 65
e 38 67
e 38 77
e 38 90
e 38 95
e 38 97
e 38 98
e 38 104
e 38 105
e 38 123
e 38 124
e 38 125
e 38 127
e 38 128
e 38 142
e 38 145
e 38 148
e 38 152
e 38 153
e 38 160
e 38 165
e 38 169
e 38 192
e 38 195
e 38 200
e 39 44
e 39 47
e 39 50
e 39 52
e 39 63
e 39 64
e 39 69
e 39 71
e 39 78
e 39 80
e 39 81
e 39 90
e 39 94
e 39 106
e 39 107
e 39 113
e 39 117
e 39 121
e 39 124
e 39 126
e 39 128
e 39 129
e 39 135
e 39 136
e 39 152
e 39 156
e 39 159
e 39 160
e 39 163
e 39 164
e 39 166
e 39 169
e 39 171
e 39 172
e 39 174
e 39 181
e 39 182
e 39 183
e 39 185
e 39 189
e 39 193
e 39 197
e 39 200
e 40 48
e 40 50
e 40 52
e 40 61
e 40 63
e 40 75
e 40 83
e 40 86
e 40 92
e 40 93
e 40 94
e 40 100
e 40 105
e 40 111
e 40 116
e 40 117
e 40 118
e 40 123
e 40 124
e 40 127
e 40 139
e 40 140
e 40 147
e 40 149
e 40 152
e 40 154
e 40 155
e 40 160
e 40 181
e 40 193
e 41 43
e 41 60
e 41 63
e 41 65
e 41 71
e 41 73
e 41 76
e 41 78
e 41 84
e 41 85
e 41 86
e 41 87
e 41 91
e 41 93
e 41 94
e 41 97
e 41 101
e 41 104
e 41 107
e 41 109
e 41 111
e 41 113
e 41 115
e 41 116
e 41 121
e 41 127
e 41 132
e 41 134
e 41 139
e 41 141
e 41 142
e 41 147
e 41 149
e 41 152
e 41 153
e 41 154
e 41 157
e 41 158
e 41 162
e 41 168
e 41 170
e 41 171
e 41 173
e 41 182
e 41 184
e 41 185
e 41 186
e 41 187
e 41 200
e 42 45
e 42 51
e 42 52
e 42 56
e 42 70
e 42 71
e 42 79
e 42 84
e 42 90
e 42 91
e 42 92
e 42 99
e 42 103
e 42 113
e 42 117
e 42 120
e 42 130
e 42 132
e 42 138
e 42 139
e 42 145
e 42 149
e 42 160
e 42 162
e 42 166
e 42 171
e 42 175
e 42 177
e 42 180
e 42 182
e 42 183
e 42 186
e 42 187
e 42 196
e 42 200
e 43 58
e 43 62
e 43 72
e 43 77
e 43 83
e 43 87
e 43 103
e 43 106
e 43 111
e 43 116
e 43 119
e 43 120
e 43 124
e 43 134
e 43 137
e 43 154
e 43 158
e 43 164
e 43 166
e 43 179
e 43 183
e 43 189
e 43 192
e 43 193
e 43 194
e 43 199
e 44 58
e 44 63
e 44 68
e 44 71
e 44 78
e 44 81
e 44 83
e 44 87
e 44 88
e 44 89
e 44 98
e 44 104
e 44 106
e 44 113
e 44 124
e 44 127
e 44 132
e 44 140
e 44 142
e 44 152
e 44 154
e 44 158
e 44 168
e 44 169
e 44 171
e 44 179
e 44 185
e 44 191
e 44 196
e 45 53
e 45 58
e 45 61
e 45 85
e 45 86
e 45 90
e 45 92
e 45 96
e 45 101
e 45 103
e 45 108
e 45 120
e 45 124
e 45 125
e 45 131
e 45 132
e 45 142
e 45 151
e 45 165
e 45 166
e 45 169
e 45 170
e 45 171
e 45 175
e 45 184
e 45 185
e 45 187
e 45 193
e 45 196
e 46 52
e 46 60
e 46 61
e 46 65
e 46 67
e 46 68
e 46 74
e 46 75
e 46 77
e 46 82
e 46 83
e 46 84
e 46 92
e 46 93
e 46 95
e 46 102
e 46 104
e 46 109
e 46 113
e 46 136
e 46 137
e 46 142
e 46 144
e 46 149
e 46 153
e 46 155
e 46 156
e 46 160
e 46 163
e 46 171
e 46 178
e 46 180
e 46 183
e 46 185
e 46 188
e 47 57
e 47 69
e 47 71
e 47 74
e 47 86
e 47 93
e 47 97
e 47 100
e 47 101
e 47 115
e 47 118
e 47 120
e 47 123
e 47 126
e 47 128
e 47 133
e 47 136
e 47 141
e 47 143
e 47 147
e 47 152
e 47 154
e 47 157
e 47 174
e 47 175
e 47 185
e 47 186
e 47 193
e 47 196
e 47 198
e 48 53
e 48 57
e 48 60
e 48 66
e 48 68
e 48 76
e 48 80
e 48 82
e 48 85
e 48 87
e 48 90
e 48 91
e 48 92
e 48 93
e 48 95
e 48 102
e 48 106
e 48 114
e 48 118
e 48 127
e 48 130
e 48 135
e 48 140
e 48 145
e 48 150
e 48 154
e 48 164
e 48 167
e 48 170
e 48 180
e 48 182
e 48 186
e 48 188
e 48 194
e 48 199
e 49 51
e 49 69
e 49 71
e 49 84
e 49 95
e 49 96
e 49 97
e 49 99
e 49 101
e 49 109
e 49 110
e 49 114
e 49 115
e 49 119
e 49 124
e 49 126
e 49 131
e 49 139
e 49 142
e 49 147
e 49 154
e 49 163
e 49 167
e 49 179
e 49 183
e 50 53
e 50 66
e 50 72
e 50 83
e 50 85
e 50 87
e 50 90
e 50 92
e 50 98
e 50 101
e 50 109
e 50 112
e 50 113
e 50 116
e 50 118
e 50 120
e 50 121
e 50 136
e 50 142
e 50 146
e 50 156
e 50 171
e 50 193
e 51 55
e 51 56
e 51 57
e 51 58
e 51 64
e 51 71
e 51 77
e 51 81
e 51 84
e 51 87
e 51 90
e 51 99
e 51 102
e 51 105
e 51 111
e 51 117
e 51 118
e 51 121
e 51 123
e 51 143
e 51 144
e 51 152
e 51 161
e 51 165
e 51 167
e 51 168
e 51 173
e 51 177
e 51 186
e 51 189
e 51 190
e 51 198
e 51 200
e 52 65
e 52 66
e 52 70
e 52 74
e 52 81
e 52 84
e 52 93
e 52 98
e 52 102
e 52 107
e 52 112
e 52 124
e 52 132
e 52 134
e 52 136
e 52 146
e 52 147
e 52 150
e 52 151
e 52 157
e 52 158
e 52 167
e 52 175
e 52 187
e 52 192
e 52 198
e 53 56
e 53 66
e 53 71
e 53 79
e 53 80
e 53 81
e 53 82
e 53 84
e 53 85
e 53 86
e 53 104
e 53 106
e 53 116
e 53 117
e 53 118
e 53 120
e 53 124
e 53 131
e 53 139
e 53 142
e 53 145
e 53 159
e 53 160
e 53 165
e 53 167
e 53 168
e 53 172
e 53 173
e 53 175
e 53 178
e 53 179
e 53 181
e 53 186
e 53 191
e 53 195
e 54 57
e 54 59
e 54 60
e 54 61
e 54 66
e 54 69
e 54 79
e 54 80
e 54 84
e 54 87
e 54 90
e 54 91
e 54 92
e 54 95
e 54 96
e 54 97
e 54 129
e 54 134
e 54 138
e 54 142
e 54 143
e 54 144
e 54 149
e 54 162
e 54 163
e 54 167
e 54 168
e 54 170
e 54 172
e 54 174
e 54 175
e 54 176
e 54 177
e 54 185
e 54 188
e 54 195
e 54 196
e 54 197
e 55 65
e 55 67
e 55 73
e 55 75
e 55 77
e 55 78
e 55 83
e 55 88
e 55 93
e 55 106
e 55 107
e 55 121
e 55 128
e 55 135
e 55 136
e 55 142
e 55 155
e 55 156
e 55 157
e 55 159
e 55 160
e 55 162
e 55 164
e 55 182
e 55 184
e 55 192
e 55 199
e 56 57
e 56 61
e 56 65
e 56 79
e 56 81
e 56 82
e 56 83
e 56 92
e 56 97
e 56 105
e 56 106
e 56 109
e 56 112
e 56 117
e 56 129
e 56 132
e 56 139
e 56 151
e 56 154
e 56 158
e 56 161
e 56 163
e 56 164
e 56 165
e 56 173
e 56 175
e 56 179
e 56 189
e 56 192
e 56 199
e 57 65
e 57 72
e 57 74
e 57 75
e 57 79
e 57 82
e 57 85
e 57 92
e 57 100
e 57 110
e 57 113
e 57 116
e 57 117
e 57 122
e 57 132
e 57 133
e 57 140
e 57 148
e 57 149
e 57 150
e 57 151
e 57 153
e 57 155
e 57 157
e 57 158
e 57 160
e 57 171
e 57 172
e 57 175
e 57 179
e 57 183
e 57 185
e 57 195
e 57 200
e 58 60
e 58 64
e 58 65
e 58 72
e 58 78
e 58 80
e 58 82
e 58 86
e 58 89
e 58 93
e 58 94
e 58 97
e 58 116
e 58 118
e 58 119
e 58 123
e 58 125
e 58 134
e 58 136
e 58 145
e 58 165
e 58 171
e 58 177
e 58 180
e 58 181
e 58 184
e 58 186
e 58 188
e 58 193
e 58 199
e 58 200
e 59 68
e 59 69
e 59 71
e 59 73
e 59 79
e 59 80
e 59 92
e 59 94
e 59 97
e 59 101
e 59 104
e 59 107
e 59 108
e 59 110
e 59 126
e 59 132
e 59 135
e 59 139
e 59 140
e 59 153
e 59 163
e 59 170
e 59 171
e 59 175
e 59 179
e 59 187
e 59 191
e 60 66
e 60 81
e 60 93
e 60 98
e 60 100
e 60 109
e 60 112
e 60 115
e 60 119
e 60 121
e 60 124
e 60 128
e 60 129
e 60 140
e 60 141
e 60 144
e 60 147
e 60 148
e 60 162
e 60 167
e 60 169
e 60 171
e 60 173
e 60 177
e 60 178
e 60 186
e 60 189
e 60 190
e 61 64
e 61 65
e 61 70
e 61 75
e 61 78
e 61 86
e 61 87
e 61 88
e 61 91
e 61 92
e 61 105
e 61 109
e 61 111
e 61 112
e 61 128
e 61 130
e 61 134
e 61 136
e 61 138
e 61 140
e 61 143
e 61 154
e 61 157
e 61 160
e 61 162
e 61 163
e 61 164
e 61 178
e 61 181
e 61 189
e 61 191
e 61 194
e 62 69
e 62 78
e 62 83
e 62 84
e 62 86
e 62 90
e 62 98
e 62 99
e 62 100
e 62 101
e 62 103
e 62 107
e 62 110
e 62 120
e 62 123
e 62 132
e 62 133
e 62 137
e 62 138
e 62 140
e 62 141
e 62 144
e 62 148
e 62 149
e 62 159
e 62 162
e 62 168
e 62 169
e 62 177
e 62 179
e 62 180
e 62 183
e 62 189
e 62 194
e 62 199
e 63 66
e 63 72
e 63 74
e 63 75
e 63 77
e 63 82
e 63 91
e 63 92
e 63 98
e 63 102
e 63 104
e 63 105
e 63 115
e 63 119
e 63 121
e 63 124
e 63 127
e 63 129
e 63 132
e 63 136
e 63 144
e 63 150
e 63 158
e 63 160
e 63 167
e 63 181
e 63 189
e 63 191
e 63 200
e 64 72
e 64 74
e 64 77
e 64 79
e 64 80
e 64 82
e 64 84
e 64 87
e 64 96
e 64 99
e 64 101
e 64 107
e 64 111
e 64 116
e 64 123
e 64 132
e 64 138
e 64 143
e 64 151
e 64 167
e 64 169
e 64 170
e 64 171
e 64 174
e 64 181
e 64 187
e 64 191
e 64 193
e 64 194
e 64 198
e 65 81
e 65 91
e 65 103
e 65 106
e 65 109
e 65 112
e 65 115
e 65 121
e 65 125
e 65 132
e 65 147
e 65 155
e 65 180
e 65 181
e 65 183
e 65 189
e 65 191
e 65 196
e 66 76
e 66 78
e 66 80
e 66 87
e 66 88
e 66 96
e 66 97
e 66 108
e 66 110
e 66 112
e 66 116
e 66 121
e 66 130
e 66 135
e 66 146
e 66 147
e 66 150
e 66 164
e 66 165
e 66 167
e 66 172
e 66 180
e 66 183
e 66 189
e 66 191
e 66 197
e 67 68
e 67 71
e 67 82
e 67 95
e 67 100
e 67 109
e 67 111
e 67 123
e 67 124
e 67 130
e 67 137
e 67 145
e 67 148
e 67 155
e 67 156
e 67 166
e 67 168
e 67 174
e 67 175
e 67 177
e 67 189
e 67 190
e 67 196
e 67 197
e 68 74
e 68 78
e 68 82
e 68 91
e 68 107
e 68 119
e 68 120
e 68 124
e 68 130
e 68 131
e 68 132
e 68 133
e 68 136
e 68 140
e 68 153
e 68 160
e 68 164
e 68 165
e 68 166
e 68 174
e 68 175
e 68 176
e 68 179
e 68 180
e 68 190
e 69 71
e 69 80
e 69 89
e 69 102
e 69 104
e 69 110
e 69 114
e 69 116
e 69 118
e 69 119
e 69 122
e 69 143
e 69 144
e 69 145
e 69 153
e 69 156
e 69 157
e 69 159
e 69 175
e 69 176
e 69 178
e 69 184
e 69 185
e 69 186
e 69 187
e 69 191
e 69 200
e 70 72
e 70 73
e 70 78
e 70 84
e 70 91
e 70 93
e 70 94
e 70 96
e 70 100
e 70 108
e 70 115
e 70 117
e 70 118
e 70 121
e 70 128
e 70 140
e 70 144
e 70 145
e 70 155
e 70 159
e 70 161
e 70 184
e 70 192
e 70 200
e 71 73
e 71 80
e 71 82
e 71 85
e 71 86
e 71 89
e 71 91
e 71 92
e 71 98
e 71 103
e 71 105
e 71 125
e 71 133
e 71 136
e 71 144
e 71 146
e 71 147
e 71 152
e 71 166
e 71 169
e 71 173
e 71 184
e 71 189
e 71 190
e 71 192
e 71 199
e 72 91
e 72 100
e 72 107
e 72 108
e 72 109
e 72 110
e 72 120
e 72 128
e 72 131
e 72 141
e 72 143
e 72 148
e 72 154
e 72 157
e 72 171
e 72 186
e 72 187
e 72 188
e 72 190
e 72 193
e 73 78
e 73 80
e 73 90
e 73 94
e 73 97
e 73 101
e 73 103
e 73 105
e 73 115
e 73 125
e 73 135
e 73 142
e 73 143
e 73 145
e 73 149
e 73 151
e 73 155
e 73 157
e 73 158
e 73 159
e 73 172
e 73 174
e 73 183
e 73 190
e 73 193
e 73 194
e 73 197
e 74 77
e 74 78
e 74 80
e 74 82
e 74 86
e 74 100
e 74 102
e 74 113
e 74 114
e 74 115
e 74 117
e 74 127
e 74 131
e 74 141
e 74 150
e 74 155
e 74 157
e 74 158
e 74 159
e 74 161
e 74 170
e 74 171
e 74 174
e 74 177
e 74 181
e 74 185
e 74 189
e 74 197
e 74 199
e 74 200
e 75 77
e 75 82
e 75 102
e 75 105
e 75 117
e 75 118
e 75 119
e 75 122
e 75 124
e 75 125
e 75 133
e 75 135
e 75 139
e 75 140
e 75 141
e 75 142
e 75 144
e 75 145
e 75 153
e 75 163
e 75 167
e 75 169
e 75 173
e 75 183
e 75 184
e 75 185
e 75 189
e 75 194
e 75 196
e 75 198
e 76 89
e 76 95
e 76 96
e 76 104
e 76 105
e 76 109
e 76 110
e 76 111
e 76 112
e 76 117
e 76 124
e 76 127
e 76 133
e 76 134
e 76 136
e 76 140
e 76 146
e 76 147
e 76 148
e 76 150
e 76 151
e 76 159
e 76 162
e 76 164
e 76 167
e 76 170
e 76 192
e 76 193
e 76 198
e 77 80
e 77 81
e 77 82
e 77 84
e 77 86
e 77 89
e 77 92
e 77 98
e 77 106
e 77 120
e 77 128
e 77 129
e 77 134
e 77 136
e 77 144
e 77 145
e 77 148
e 77 150
e 77 152
e 77 153
e 77 159
e 77 160
e 77 169
e 77 175
e 77 179
e 77 184
e 77 194
e 77 197
e 77 200
e 78 80
e 78 81
e 78 86
e 78 92
e 78 95
e 78 99
e 78 103
e 78 111
e 78 127
e 78 130
e 78 135
e 78 137
e 78 138
e 78 141
e 78 144
e 78 146
e 78 158
e 78 161
e 78 165
e 78 179
e 78 182
e 78 187
e 78 191
e 78 199
e 79 81
e 79 83
e 79 85
e 79 88
e 79 95
e 79 98
e 79 110
e 79 113
e 79 114
e 79 115
e 79 118
e 79 120
e 79 124
e 79 127
e 79 128
e 79 135
e 79 137
e 79 144
e 79 145
e 79 146
e 79 150
e 79 151
e 79 156
e 79 159
e 79 167
e 79 170
e 79 172
e 79 176
e 79 185
e 79 186
e 79 187
e 79 188
e 79 191
e 79 195
e 80 84
e 80 87
e 80 97
e 80 99
e 80 101
e 80 103
e 80 104
e 80 106
e 80 110
e 80 111
e 80 116
e 80 119
e 80 131
e 80 139
e 80 141
e 80 147
e 80 157
e 80 162
e 80 164
e 80 166
e 80 168
e 80 169
e 80 172
e 80 179
e 80 184
e 80 186
e 80 189
e 80 191
e 80 196
e 81 82
e 81 97
e 81 99
e 81 104
e 81 122
e 81 124
e 81 133
e 81 141
e 81 143
e 81 156
e 81 159
e 81 161
e 81 167
e 81 195
e 82 100
e 82 101
e 82 103
e 82 104
e 82 105
e 82 106
e 82 112
e 82 114
e 82 117
e 82 119
e 82 120
e 82 121
e 82 135
e 82 149
e 82 155
e 82 156
e 82 158
e 82 162
e 82 164
e 82 166
e 82 169
e 82 175
e 82 184
e 82 195
e 82 196
e 82 197
e 83 87
e 83 93
e 83 99
e 83 103
e 83 104
e 83 105
e 83 107
e 83 114
e 83 126
e 83 135
e 83 137
e 83 138
e 83 145
e 83 147
e 83 152
e 83 154
e 83 155
e 83 159
e 83 168
e 83 171
e 83 175
e 83 176
e 83 180
e 83 188
e 83 190
e 83 195
e 83 199
e 84 87
e 84 96
e 84 98
e 84 99
e 84 103
e 84 106
e 84 107
e 84 108
e 84 115
e 84 117
e 84 128
e 84 129
e 84 135
e 84 137
e 84 151
e 84 155
e 84 159
e 84 163
e 84 172
e 84 173
e 84 179
e 84 191
e 84 200
e 85 87
e 85 91
e 85 98
e 85 99
e 85 104
e 85 109
e 85 118
e 85 122
e 85 129
e 85 132
e 85 134
e 85 135
e 85 140
e 85 141
e 85 159
e 85 166
e 85 170
e 85 176
e 85 177
e 85 178
e 85 181
e 85 184
e 85 194
e 85 197
e 86 100
e 86 111
e 86 113
e 86 116
e 86 142
e 86 144
e 86 145
e 86 150
e 86 151
e 86 152
e 86 159
e 86 160
e 86 166
e 86 168
e 86 172
e 86 178
e 86 179
e 86 181
e 86 187
e 86 192
e 86 200
e 87 107
e 87 110
e 87 118
e 87 121
e 87 128
e 87 137
e 87 140
e 87 146
e 87 147
e 87 155
e 87 156
e 87 162
e 87 163
e 87 164
e 87 174
e 87 182
e 87 183
e 87 184
e 87 189
e 87 191
e 87 198
e 88 89
e 88 91
e 88 100
e 88 108
e 88 112
e 88 120
e 88 143
e 88 144
e 88 149
e 88 157
e 88 163
e 88 165
e 88 166
e 88 172
e 88 173
e 88 177
e 88 189
e 89 90
e 89 91
e 89 94
e 89 95
e 89 97
e 89 99
e 89 101
e 89 104
e 89 109
e 89 116
e 89 121
e 89 122
e 89 133
e 89 136
e 89 140
e 89 146
e 89 147
e 89 156
e 89 159
e 89 160
e 89 162
e 89 164
e 89 169
e 89 172
e 89 174
e 89 177
e 89 179
e 89 181
e 89 187
e 89 189
e 89 190
e 90 104
e 90 110
e 90 118
e 90 120
e 90 126
e 90 132
e 90 146
e 90 147
e 90 148
e 90 149
e 90 151
e 90 158
e 90 160
e 90 164
e 90 170
e 90 171
e 90 173
e 90 185
e 90 189
e 90 194
e 90 198
e 90 200
e 91 96
e 91 100
e 91 115
e 91 116
e 91 123
e 91 129
e 91 136
e 91 141
e 91 150
e 91 151
e 91 156
e 91 162
e 91 178
e 91 185
e 91 192
e 92 99
e 92 103
e 92 107
e 92 111
e 92 118
e 92 129
e 92 140
e 92 142
e 92 144
e 92 156
e 92 166
e 92 167
e 92 168
e 92 176
e 92 178
e 92 181
e 92 199
e 93 108
e 93 113
e 93 119
e 93 120
e 93 121
e 93 122
e 93 128
e 93 130
e 93 134
e 93 136
e 93 145
e 93 149
e 93 153
e 93 157
e 93 158
e 93 161
e 93 171
e 93 172
e 93 173
e 93 176
e 93 181
e 93 187
e 93 188
e 93 189
e 93 190
e 93 191
e 93 196
e 93 197
e 94 98
e 94 99
e 94 108
e 94 114
e 94 126
e 94 128
e 94 131
e 94 136
e 94 138
e 94 139
e 94 140
e 94 145
e 94 150
e 94 152
e 94 153
e 94 160
e 94 161
e 94 170
e 94 171
e 94 188
e 94 190
e 94 193
e 94 195
e 94 198
e 94 199
e 94 200
e 95 99
e 95 100
e 95 110
e 95 111
e 95 120
e 95 128
e 95 132
e 95 144
e 95 152
e 95 180
e 95 184
e 96 103
e 96 104
e 96 105
e 96 106
e 96 108
e 96 111
e 96 112
e 96 116
e 96 120
e 96 121
e 96 132
e 96 143
e 96 147
e 96 153
e 96 156
e 96 181
e 96 185
e 96 189
e 96 199
e 97 103
e 97 104
e 97 109
e 97 110
e 97 114
e 97 125
e 97 126
e 97 128
e 97 134
e 97 139
e 97 143
e 97 151
e 97 157
e 97 158
e 97 160
e 97 191
e 98 101
e 98 104
e 98 111
e 98 129
e 98 130
e 98 131
e 98 135
e 98 142
e 98 145
e 98 147
e 98 156
e 98 161
e 98 168
e 98 175
e 98 177
e 98 196
e 98 200
e 99 111
e 99 126
e 99 129
e 99 131
e 99 137
e 99 149
e 99 151
e 99 163
e 99 168
e 99 171
e 99 176
e 99 182
e 99 185
e 99 190
e 99 199
e 100 104
e 100 105
e 100 106
e 100 107
e 100 112
e 100 115
e 100 117
e 100 121
e 100 124
e 100 125
e 100 128
e 100 132
e 100 139
e 100 140
e 100 142
e 100 145
e 100 161
e 100 163
e 100 164
e 100 173
e 100 177
e 100 180
e 100 181
e 100 189
e 100 198
e 101 109
e 101 115
e 101 116
e 101 123
e 101 136
e 101 151
e 101 152
e 101 153
e 101 157
e 101 161
e 101 167
e 101 168
e 101 169
e 101 176
e 101 178
e 101 181
e 101 189
e 101 190
e 101 192
e 101 194
e 102 115
e 102 119
e 102 122
e 102 125
e 102 132
e 102 137
e 102 138
e 102 141
e 102 143
e 102 153
e 102 162
e 102 163
e 102 166
e 102 167
e 102 169
e 102 170
e 102 173
e 102 174
e 102 180
e 102 181
e 102 183
e 102 184
e 102 188
e 102 189
e 102 190
e 102 199
e 102 200
e 103 105
e 103 110
e 103 118
e 103 120
e 103 136
e 103 139
e 103 144
e 103 145
e 103 150
e 103 154
e 103 156
e 103 161
e 103 164
e 103 168
e 103 170
e 103 173
e 103 182
e 103 187
e 103 188
e 103 190
e 103 191
e 103 195
e 103 197
e 103 198
e 103 199
e 103 200
e 104 117
e 104 118
e 104 129
e 104 145
e 104 148
e 104 150
e 104 160
e 104 163
e 104 164
e 104 172
e 104 177
e 104 188
e 104 195
e 105 110
e 105 111
e 105 122
e 105 124
e 105 127
e 105 132
e 105 137
e 105 142
e 105 143
e 105 145
e 105 149
e 105 150
e 105 157
e 105 161
e 105 162
e 105 164
e 105 171
e 105 177
e 105 178
e 105 189
e 105 197
e 105 198
e 106 113
e 106 114
e 106 122
e 106 125
e 106 126
e 106 127
e 106 130
e 106 131
e 106 136
e 106 142
e 106 145
e 106 147
e 106 156
e 106 157
e 106 161
e 106 182
e 106 186
e 106 191
e 106 193
e 106 196
e 106 197
e 107 110
e 107 116
e 107 122
e 107 124
e 107 125
e 107 144
e 107 146
e 107 149
e 107 160
e 107 167
e 107 169
e 107 175
e 107 198
e 107 200
e 108 112
e 108 121
e 108 125
e 108 129
e 108 131
e 108 133
e 108 136
e 108 141
e 108 145
e 108 146
e 108 148
e 108 151
e 108 161
e 108 164
e 108 165
e 108 167
e 108 170
e 108 172
e 108 174
e 108 180
e 108 183
e 109 115
e 109 121
e 109 125
e 109 128
e 109 131
e 109 154
e 109 161
e 109 171
e 109 172
e 109 177
e 109 191
e 109 194
e 110 120
e 110 121
e 110 124
e 110 139
e 110 140
e 110 143
e 110 147
e 110 154
e 110 167
e 110 169
e 110 170
e 110 178
e 110 179
e 110 188
e 110 198
e 111 113
e 111 114
e 111 116
e 111 117
e 111 124
e 111 130
e 111 132
e 111 136
e 111 149
e 111 151
e 111 152
e 111 154
e 111 164
e 111 165
e 111 166
e 111 168
e 111 169
e 111 174
e 111 179
e 111 188
e 111 189
e 111 192
e 111 196
e 112 119
e 112 120
e 112 121
e 112 124
e 112 140
e 112 143
e 112 145
e 112 147
e 112 175
e 112 176
e 112 190
e 113 125
e 113 128
e 113 137
e 113 142
e 113 148
e 113 153
e 113 161
e 113 171
e 113 179
e 113 190
e 113 194
e 113 195
e 113 199
e 113 200
e 114 117
e 114 137
e 114 141
e 114 142
e 114 167
e 114 171
e 114 176
e 114 179
e 114 186
e 114 193
e 115 128
e 115 129
e 115 130
e 115 133
e 115 142
e 115 145
e 115 156
e 115 157
e 115 160
e 115 163
e 115 166
e 115 175
e 115 180
e 115 182
e 115 184
e 115 188
e 115 195
e 115 196
e 116 119
e 116 120
e 116 123
e 116 130
e 116 137
e 116 144
e 116 146
e 116 151
e 116 153
e 116 156
e 116 157
e 116 159
e 116 161
e 116 169
e 116 171
e 116 172
e 116 177
e 116 179
e 116 182
e 116 187
e 116 188
e 116 193
e 116 196
e 116 198
e 116 200
e 117 126
e 117 132
e 117 133
e 117 135
e 117 137
e 117 140
e 117 143
e 117 154
e 117 155
e 117 159
e 117 160
e 117 166
e 117 168
e 117 169
e 117 170
e 117 174
e 117 178
e 117 183
e 117 190
e 117 199
e 118 119
e 118 136
e 118 145
e 118 147
e 118 160
e 118 161
e 118 162
e 118 163
e 118 166
e 118 174
e 118 181
e 118 187
e 118 189
e 118 193
e 118 194
e 118 198
e 118 200
e 119 121
e 119 127
e 119 129
e 119 130
e 119 132
e 119 133
e 119 146
e 119 164
e 119 165
e 119 166
e 119 167
e 119 178
e 119 180
e 119 186
e 119 189
e 119 194
e 120 126
e 120 130
e 120 131
e 120 140
e 120 143
e 120 147
e 120 148
e 120 154
e 120 160
e 120 174
e 120 176
e 120 183
e 120 185
e 120 193
e 120 194
e 120 199
e 121 122
e 121 123
e 121 136
e 121 144
e 121 161
e 121 162
e 121 166
e 121 168
e 121 175
e 121 195
e 121 196
e 121 200
e 122 123
e 122 135
e 122 137
e 122 140
e 122 146
e 122 152
e 122 154
e 122 175
e 122 176
e 122 177
e 122 187
e 122 190
e 122 200
e 123 124
e 123 125
e 123 132
e 123 142
e 123 148
e 123 157
e 123 159
e 123 168
e 123 169
e 123 178
e 123 193
e 124 127
e 124 128
e 124 135
e 124 136
e 124 140
e 124 141
e 124 142
e 124 150
e 124 151
e 124 156
e 124 157
e 124 158
e 124 164
e 124 165
e 124 172
e 124 176
e 124 186
e 124 187
e 124 188
e 124 189
e 124 191
e 124 200
e 125 131
e 125 133
e 125 137
e 125 141
e 125 142
e 125 149
e 125 160
e 125 162
e 125 163
e 125 164
e 125 168
e 125 169
e 125 170
e 125 171
e 125 173
e 125 174
e 125 177
e 125 185
e 125 187
e 125 188
e 125 189
e 125 191
e 125 195
e 125 198
e 126 129
e 126 133
e 126 134
e 126 135
e 126 141
e 126 145
e 126 147
e 126 154
e 126 156
e 126 157
e 126 158
e 126 159
e 126 173
e 126 175
e 126 187
e 126 190
e 126 193
e 127 132
e 127 134
e 127 138
e 127 139
e 127 149
e 127 160
e 127 163
e 127 180
e 127 182
e 127 193
e 128 131
e 128 141
e 128 143
e 128 145
e 128 146
e 128 152
e 128 153
e 128 160
e 128 162
e 128 167
e 128 171
e 128 178
e 128 187
e 128 189
e 128 195
e 129 130
e 129 134
e 129 135
e 129 140
e 129 145
e 129 147
e 129 149
e 129 160
e 129 161
e 129 170
e 129 172
e 129 174
e 129 176
e 129 185
e 129 188
e 129 191
e 129 195
e 129 196
e 129 198
e 130 131
e 130 139
e 130 149
e 130 151
e 130 157
e 130 163
e 130 165
e 130 175
e 130 176
e 130 185
e 130 188
e 130 193
e 130 194
e 131 137
e 131 147
e 131 150
e 131 153
e 131 173
e 131 178
e 131 180
e 131 184
e 131 188
e 131 190
e 131 192
e 131 198
e 132 133
e 132 135
e 132 137
e 132 138
e 132 152
e 132 153
e 132 157
e 132 159
e 132 166
e 132 169
e 132 171
e 132 172
e 132 173
e 132 176
e 132 180
e 132 184
e 132 188
e 132 192
e 133 136
e 133 138
e 133 154
e 133 158
e 133 159
e 133 160
e 133 168
e 133 170
e 133 172
e 133 174
e 133 178
e 133 190
e 133 193
e 134 143
e 134 147
e 134 153
e 134 160
e 134 162
e 134 163
e 134 174
e 134 175
e 134 181
e 134 187
e 134 191
e 134 192
e 134 193
e 134 196
e 135 142
e 135 150
e 135 155
e 135 160
e 135 164
e 135 166
e 135 167
e 135 175
e 135 177
e 135 180
e 135 189
e 135 194
e 135 195
e 136 153
e 136 155
e 136 159
e 136 163
e 136 164
e 136 167
e 136 169
e 136 170
e 136 172
e 136 187
e 136 191
e 136 200
e 137 139
e 137 143
e 137 144
e 137 148
e 137 160
e 137 163
e 137 166
e 137 167
e 137 172
e 137 176
e 137 178
e 137 179
e 137 182
e 137 184
e 137 185
e 137 188
e 138 149
e 138 153
e 138 155
e 138 158
e 138 160
e 138 175
e 138 176
e 138 178
e 138 180
e 138 188
e 138 198
e 138 199
e 139 141
e 139 146
e 139 155
e 139 156
e 139 157
e 139 165
e 139 170
e 139 185
e 139 187
e 139 189
e 139 196
e 139 197
e 139 198
e 140 146
e 140 150
e 140 161
e 140 167
e 140 176
e 140 180
e 140 189
e 140 191
e 140 193
e 141 143
e 141 148
e 141 151
e 141 156
e 141 157
e 141 159
e 141 160
e 141 163
e 141 172
e 141 178
e 141 188
e 142 147
e 142 156
e 142 173
e 142 174
e 142 189
e 142 191
e 143 144
e 143 146
e 143 148
e 143 156
e 143 164
e 143 166
e 143 168
e 143 171
e 143 174
e 143 176
e 143 184
e 143 197
e 143 198
e 143 200
e 144 145
e 144 146
e 144 147
e 144 148
e 144 159
e 144 166
e 144 169
e 144 180
e 144 183
e 144 193
e 144 195
e 144 196
e 145 156
e 145 162
e 145 180
e 145 181
e 145 190
e 145 192
e 145 196
e 145 197
e 146 149
e 146 152
e 146 156
e 146 157
e 146 159
e 146 161
e 146 167
e 146 173
e 146 179
e 146 182
e 146 194
e 146 200
e 147 152
e 147 155
e 147 156
e 147 157
e 147 158
e 147 161
e 147 165
e 147 168
e 147 169
e 147 171
e 147 180
e 147 192
e 147 199
e 148 149
e 148 152
e 148 170
e 148 172
e 148 175
e 148 176
e 148 180
e 148 182
e 148 184
e 148 190
e 148 194
e 148 198
e 149 150
e 149 155
e 149 156
e 149 157
e 149 167
e 149 169
e 149 170
e 149 175
e 149 178
e 149 179
e 149 185
e 149 199
e 150 153
e 150 160
e 150 164
e 150 171
e 150 177
e 150 184
e 150 187
e 150 193
e 150 199
e 151 153
e 151 166
e 151 168
e 151 170
e 151 172
e 151 173
e 151 176
e 151 191
e 152 167
e 152 168
e 152 172
e 152 173
e 152 180
e 152 194
e 153 157
e 153 164
e 153 165
e 153 167
e 153 168
e 153 172
e 153 177
e 153 180
e 153 181
e 153 183
e 153 184
e 153 185
e 153 186
e 153 195
e 153 196
e 154 157
e 154 160
e 154 162
e 154 173
e 154 185
e 154 191
e 154 193
e 154 196
e 154 197
e 155 160
e 155 163
e 155 165
e 155 171
e 155 177
e 155 180
e 155 182
e 155 187
e 155 195
e 155 200
e 156 161
e 156 166
e 156 179
e 156 181
e 156 199
e 157 164
e 157 167
e 157 168
e 157 171
e 157 177
e 157 178
e 157 183
e 157 185
e 157 188
e 157 190
e 158 159
e 158 162
e 158 169
e 158 172
e 158 179
e 158 180
e 158 186
e 158 189
e 158 194
e 159 160
e 159 164
e 159 168
e 159 180
e 159 181
e 159 182
e 159 184
e 159 195
e 159 198
e 160 161
e 160 166
e 160 167
e 160 174
e 160 178
e 160 183
e 160 185
e 160 189
e 160 200
e 161 166
e 161 170
e 161 179
e 161 192
e 161 197
e 161 200
e 162 163
e 162 165
e 162 166
e 162 167
e 162 168
e 162 181
e 162 183
e 162 185
e 162 186
e 162 189
e 162 190
e 162 192
e 163 164
e 163 178
e 163 182
e 163 184
e 163 187
e 163 195
e 164 182
e 164 189
e 164 195
e 164 196
e 165 181
e 165 182
e 165 187
e 165 188
e 165 191
e 165 198
e 166 167
e 166 168
e 166 188
e 166 190
e 166 197
e 166 199
e 166 200
e 167 174
e 167 175
e 167 193
e 167 194
e 167 198
e 167 200
e 168 170
e 168 173
e 168 174
e 168 177
e 168 185
e 168 186
e 168 188
e 168 195
e 168 197
e 169 170
e 169 177
e 169 185
e 169 190
e 170 179
e 170 180
e 170 187
e 170 188
e 170 195
e 170 196
e 170 198
e 171 195
e 171 200
e 172 175
e 172 179
e 172 180
e 172 187
e 172 192
e 173 178
e 173 187
e 173 188
e 173 191
e 174 190
e 175 178
e 175 181
e 175 190
e 175 191
e 175 197
e 175 199
e 176 179
e 176 180
e 176 187
e 176 193
e 176 195
e 176 199
e 177 182
e 177 184
e 177 196
e 177 197
e 178 179
e 178 180
e 178 190
e 179 184
e 179 185
e 179 186
e 179 189
e 179 191
e 179 192
e 179 193
e 179 196
e 179 198
e 180 181
e 180 182
e 180 183
e 180 185
e 180 190
e 181 194
e 181 200
e 182 184
e 183 184
e 183 185
e 183 186
e 183 189
e 183 191
e 183 198
e 183 199
e 183 200
e 184 185
e 184 187
e 184 189
e 184 191
e 184 197
e 184 198
e 185 193
e 186 191
e 186 192
e 186 193
e 186 195
e 186 198
e 187 190
e 187 191
e 187 195
e 187 196
e 187 200
e 188 194
e 188 199
e 188 200
e 189 190
e 189 195
e 189 197
e 191 193
e 192 199
e 193 194
e 193 199
e 194 197
e 196 197
e 197 198
e 197 199
e 199 200
